p cnf 26 66
a 3 22 0
e 1 2 4 5 6 7 8 9 10 11 12 13 14 15 16 17 18 19 20 21 23 24 25 26 0
-3 1 0
-3 2 0
-1 -2 3 0
4 5 -6 0
-4 -5 -6 0
4 -5 6 0
-4 5 6 0
8 9 0
-8 9 0
10 -9 0
10 4 0
9 -4 -10 0
7 10 -11 0
-7 -10 -11 0
7 -10 11 0
-7 10 11 0
-13 -11 0
-13 -12 0
11 12 13 0
6 -13 -14 0
-6 13 -14 0
6 13 14 0
-6 -13 14 0
-16 15 0
-16 -15 0
14 -16 -17 0
-14 16 -17 0
14 16 17 0
-14 -16 17 0
-18 -3 0
-18 17 0
3 -17 18 0
2 12 -19 0
-2 -12 -19 0
2 -12 19 0
-2 12 19 0
-20 8 0
-20 5 0
-8 -5 20 0
-2 12 -21 0
2 -12 -21 0
-2 -12 21 0
2 12 21 0
-22 -20 0
-22 -21 0
20 21 22 0
-23 -11 0
-23 -15 0
11 15 23 0
24 -22 0
24 23 0
22 -23 -24 0
25 -19 0
25 -24 0
19 24 -25 0
-18 25 -26 0
18 -25 -26 0
-18 -25 26 0
18 25 26 0
-16 -7 11 0
-22 20 -17 5 0
-4 11 3 -22 -13 15 0
-15 -7 -21 12 26 0
-10 26 24 -9 0
24 12 -19 20 26 0
26 0
